; benchmark generated from python API
(set-info :status unknown)
(declare-fun C () Real)
(declare-fun S_4 () Real)
(declare-fun S_5 () Real)
(declare-fun L_4 () Real)
(declare-fun A_4 () Real)
(declare-fun S_0 () Real)
(declare-fun L_0 () Real)
(declare-fun A_0 () Real)
(declare-fun L_5 () Real)
(declare-fun A_5 () Real)
(declare-fun S_1 () Real)
(declare-fun S_3 () Real)
(declare-fun S_2 () Real)
(declare-fun B () Real)
(declare-fun A_1 () Real)
(declare-fun L_1 () Real)
(declare-fun L_2 () Real)
(declare-fun A_2 () Real)
(declare-fun L_3 () Real)
(declare-fun A_3 () Real)
(assert
 (let (($x39 (>= L_0 0.0)))
 (let (($x963 (>= C 5.0)))
 (let ((?x263 (* (- 1.0) B)))
 (let ((?x340 (* (- 1.0) L_5)))
 (let ((?x347 (* (- 1.0) C)))
 (let ((?x440 (* (- 1.0) A_4)))
 (let (($x8831 (<= 0.0 (+ ?x440 L_4 A_5 ?x347 ?x340 ?x263))))
 (let (($x3146 (<= (+ (* (- 1.0) L_0) A_1 (* (- 1.0) A_5) (* 4.0 C) L_5) 0.0)))
 (let (($x56 (= L_1 L_0)))
 (let (($x1008 (not $x56)))
 (let (($x96 (= L_5 L_4)))
 (let (($x3138 (<= (+ (* (- 1.0) A_0) L_0 A_5 (* (- 5.0) C) ?x340 ?x263) 0.0)))
 (let (($x15089 (or $x96 (<= (+ (* (- 1.0) A_5) (* 2.0 C) S_3 L_5 B) 0.0) $x8831)))
 (let (($x9453 (or $x96 (<= (+ (* (- 1.0) A_5) (* 5.0 C) S_0 L_5 B) 0.0) $x8831)))
 (let (($x9560 (or $x96 (<= (+ (* (- 1.0) A_5) (* 3.0 C) S_2 L_5 B) 0.0) $x8831)))
 (let (($x14922 (or $x96 (<= (+ (* (- 1.0) A_5) (* 4.0 C) S_1 L_5 B) 0.0) $x8831)))
 (let (($x8667 (not (<= 0.0 (+ L_1 (* (- 1.0) L_2))))))
 (let (($x3144 (<= (+ (* (- 1.0) L_1) (* (- 1.0) A_5) A_2 (* 3.0 C) L_5) 0.0)))
 (let (($x2175 (= (+ A_4 (* (- 1.0) L_4) (* (- 1.0) A_5) C L_5 B) 0.0)))
 (let (($x9883 (or $x56 (<= (+ S_4 L_1 (* (- 1.0) A_1) (* (- 3.0) C) B) 0.0))))
 (let (($x592 (<= 0.0 (+ ?x440 L_4 (* (- 1.0) L_1) A_1 (* 3.0 C) ?x263))))
 (let (($x8712 (<= 0.0 (+ L_4 (* (- 1.0) A_5) A_2 (* 3.0 C) (* (- 1.0) L_2)))))
 (let (($x2068 (= (+ (* (- 1.0) A_5) A_2 (* 3.0 C) (* (- 1.0) L_2) L_5) 0.0)))
 (let (($x66 (= L_2 L_1)))
 (let (($x9846 (or $x66 (<= (+ S_5 (* (- 1.0) A_2) (* (- 3.0) C) L_2 B) 0.0))))
 (let (($x8628 (<= 0.0 (+ L_4 (* (- 1.0) L_1) A_1 (* (- 1.0) A_5) (* 4.0 C)))))
 (let (($x780 (not $x96)))
 (let ((?x272 (* (- 1.0) L_1)))
 (let ((?x905 (+ L_0 ?x272)))
 (let (($x533 (<= 0.0 ?x905)))
 (let (($x9491 (or $x533 (<= (+ S_5 L_1 (* (- 1.0) A_1) (* (- 4.0) C) B) 0.0))))
 (let (($x9866 (or $x66 $x1008 (<= (+ (* (- 1.0) L_0) A_1 (* (- 1.0) A_2) C L_2) 0.0))))
 (let (($x2044 (<= (+ A_2 (* (- 1.0) S_3) (* (- 1.0) L_2) ?x263) 0.0)))
 (let (($x1990 (<= (+ A_2 (* (- 3.0) C) (* (- 1.0) S_0) (* (- 1.0) L_2) ?x263) 0.0)))
 (let (($x2157 (or $x66 (<= (+ (* (- 1.0) A_2) (* 2.0 C) S_0 L_2 B) 0.0))))
 (let ((?x289 (* (- 1.0) L_2)))
 (let ((?x1203 (* (- 2.0) C)))
 (let ((?x1389 (* (- 1.0) A_0)))
 (let (($x76 (= L_3 L_2)))
 (let (($x1375 (= (+ ?x272 A_1 (* (- 1.0) A_5) (* 4.0 C) L_5) 0.0)))
 (let (($x505 (<= 0.0 (+ ?x272 A_1 (* (- 1.0) A_3) (* 2.0 C) L_3 ?x263))))
 (let (($x143 (>= A_2 A_1)))
 (let (($x86 (= L_4 L_3)))
 (let (($x128 (>= S_1 S_0)))
 (let (($x131 (>= S_2 S_1)))
 (let (($x134 (>= S_3 S_2)))
 (let (($x137 (>= S_4 S_3)))
 (let (($x144 (>= A_3 A_2)))
 (let (($x145 (>= A_4 A_3)))
 (and (<= (+ A_4 (* (- 1.0) L_4)) S_5) (<= (+ A_0 (* (- 1.0) L_0)) S_4) (not (<= (+ A_1 ?x272) S_4)) $x145 $x144 $x137 $x134 $x131 $x128 $x86 $x143 (or $x56 (not $x533)) (<= (+ ?x272 A_1 (* (- 1.0) S_2) ?x263) 0.0) (<= (+ ?x1389 L_0 ?x272 A_1 ?x347 ?x263) 0.0) (<= (+ ?x272 A_1 ?x347 (* (- 1.0) S_1) ?x263) 0.0) (<= (+ ?x272 A_1 ?x1203 (* (- 1.0) S_0) ?x263) 0.0) (not $x505) (<= (+ ?x272 A_1 C (* (- 1.0) S_3) ?x263) 0.0) (<= (+ (* (- 1.0) S_4) ?x272 A_1 (* 2.0 C) ?x263) 0.0) (or $x56 (<= (+ L_1 (* (- 1.0) A_1) S_1 B) 0.0)) (or $x66 $x533 (= (+ ?x272 A_1 (* (- 1.0) A_2) C L_2) 0.0)) (or $x66 $x96 $x533 $x1375) (or $x56 (<= (+ L_1 (* (- 1.0) A_1) C S_0 B) 0.0)) (or $x96 $x533 $x592 $x1375) $x76 (or $x56 (<= (+ L_1 (* (- 1.0) A_1) ?x347 S_2 B) 0.0)) (or $x56 (<= (+ L_1 (* (- 1.0) A_1) ?x1203 S_3 B) 0.0)) (or $x56 (<= 0.0 (+ A_1 (* (- 1.0) A_2) C)) $x8667) (or $x66 (<= (+ (* (- 1.0) A_2) S_2 L_2 B) 0.0)) (or $x66 (<= (+ (* (- 1.0) A_2) C S_1 L_2 B) 0.0)) (or $x66 (<= (+ (* (- 1.0) A_2) ?x347 S_3 L_2 B) 0.0)) (<= (+ A_2 ?x1203 (* (- 1.0) S_1) ?x289 ?x263) 0.0) (<= (+ (* (- 1.0) S_4) A_2 C ?x289 ?x263) 0.0) (<= (+ ?x1389 L_0 A_2 ?x1203 ?x289 ?x263) 0.0) $x2157 $x1990 (<= (+ A_2 ?x347 (* (- 1.0) S_2) ?x289 ?x263) 0.0) $x2044 $x9866 (or $x66 $x96 $x2068) $x9491 (or $x533 $x780 $x8628) (or $x66 $x8667) $x9846 (or $x66 $x2068 $x8712) (or $x96 (not $x592) $x2175) $x9883 (or $x780 (<= (+ ?x440 A_5 ?x347 ?x263) 0.0)) (or $x96 (<= (+ S_5 (* (- 1.0) A_5) L_5 B) 0.0)) (or $x2175 (not $x8831)) (or $x96 $x3144 $x8667) (or $x96 (<= (+ S_4 (* (- 1.0) A_5) C L_5 B) 0.0)) $x14922 $x9560 $x9453 (<= (+ A_5 (* (- 3.0) C) (* (- 1.0) S_3) ?x340 ?x263) 0.0) (<= (+ A_5 (* (- 5.0) C) (* (- 1.0) S_1) ?x340 ?x263) 0.0) (<= (+ (* (- 1.0) S_4) A_5 ?x1203 ?x340 ?x263) 0.0) $x15089 $x3138 (<= (+ A_5 (* (- 4.0) C) (* (- 1.0) S_2) ?x340 ?x263) 0.0) (<= (+ A_5 (* (- 6.0) C) (* (- 1.0) S_0) ?x340 ?x263) 0.0) (or $x96 $x1008 $x3146 $x8831) (or $x96 (not (<= 0.0 (+ L_4 ?x340)))) (<= (+ ?x1389 L_0 (* (- 3.0) C) S_3) 0.0) (<= (+ (* (- 3.0) C) S_3 (* (- 1.0) S_1)) 0.0) (<= (+ (* 2.0 C) (* (- 1.0) S_3) S_0) 0.0) (<= (+ C (* (- 1.0) S_3) S_1) 0.0) (<= (+ ?x1389 L_0 ?x347 S_1) 0.0) (<= (+ ?x1389 L_0 ?x1203 S_2) 0.0) (<= (+ ?x1203 S_2 (* (- 1.0) S_1)) 0.0) (<= (+ (* (- 3.0) C) S_2 (* (- 1.0) S_0)) 0.0) (<= (+ ?x1203 S_1 (* (- 1.0) S_0)) 0.0) (<= (+ C (* (- 1.0) S_2) S_0) 0.0) (<= (+ ?x1203 S_3 (* (- 1.0) S_2)) 0.0) (<= (+ (* (- 1.0) S_4) C S_2) 0.0) (<= (+ (* (- 1.0) S_4) (* 3.0 C) S_0) 0.0) (<= (+ (* (- 4.0) C) S_3 (* (- 1.0) S_0)) 0.0) (<= (+ (* (- 1.0) S_4) (* 2.0 C) S_1) 0.0) (<= (+ S_5 (* (- 4.0) C) (* (- 1.0) S_2)) 0.0) (<= (+ S_4 ?x1389 L_0 (* (- 4.0) C)) 0.0) (<= (+ S_4 (* (- 3.0) C) (* (- 1.0) S_2)) 0.0) (<= (+ S_4 ?x1203 (* (- 1.0) S_3)) 0.0) (<= (+ S_4 (* (- 4.0) C) (* (- 1.0) S_1)) 0.0) (<= (+ S_4 (* (- 5.0) C) (* (- 1.0) S_0)) 0.0) (<= (+ S_5 (* (- 3.0) C) (* (- 1.0) S_3)) 0.0) (<= (+ S_5 (* (- 6.0) C) (* (- 1.0) S_0)) 0.0) (<= (+ S_5 ?x1389 L_0 (* (- 5.0) C)) 0.0) (<= (+ S_5 (* (- 5.0) C) (* (- 1.0) S_1)) 0.0) $x963 $x39 (<= (+ S_5 (* (- 1.0) A_5) L_5) 0.0) (<= (+ ?x1389 L_0 S_0) 0.0) (<= (+ S_5 ?x440 L_4 ?x347) 0.0) (<= (+ S_5 (* (- 1.0) S_4) ?x1203) 0.0))))))))))))))))))))))))))))))))))))))))))))))))))))
(check-sat)
